benchmark/results/graph__10-1000-0.10-03_6/graph__10-1000-0.10-03_6_Quinton_Benders_aux.lp
\ This file has been generated by DOcplex
\ ENCODING=ISO-8859-1
\Problem name: Quinton Benders_auxiliary_sub

Minimize
 obj: 0.001782531194 pi_nr_a0 + 0.001208822750 pi_nr_a1
      + 0.000914986775 pi_nr_a2 + 0.001369863014 pi_nr_a3
      + 0.000926995256 pi_nr_a4 + 0.000851788883 pi_nr_a5
      + 0.004999999977 pi_nr_a6 + 0.001322436774 pi_nr_a7
      + 0.001170960187 pi_nr_a8 + 0.000912717442 pi_nr_a9 + pi_p_a3_a1
      + pi_p_a6_a7 + pi_p_a6_a8 + pi_p_a0_a9 + pi_p_a2_a9 + pi_p_a6_a4
      + pi_p_a5_a3 + pi_p_a0_a3 + pi_p_a2_a6
      + 1305.764061186701 pi_d_a0_a1_proc_0
      + 2594.996946374074 pi_d_a0_a1_proc_1 + 0.003749400377 pi_d_a1_a0_proc_0
      + 1289.236634587750 pi_d_a1_a0_proc_1 + 344.965182700384 pi_d_a0_a2_proc_0
      + 2633.897984734727 pi_d_a0_a2_proc_1 + 133.993843636286 pi_d_a2_a0_proc_0
      + 2422.926645670629 pi_d_a2_a0_proc_1 + pi_d_a0_a3_proc_0
      - 0.000000000000 pi_d_a3_a0_proc_0 + 4564.278484553090 pi_d_a0_a4_proc_1
      + 0.000000044703 pi_d_a4_a0_proc_1 + 2589.622754456954 pi_d_a0_a5_proc_0
      + 3886.621527195406 pi_d_a0_a5_proc_1 + 5.377245543046 pi_d_a5_a0_proc_0
      + 1302.376018281497 pi_d_a5_a0_proc_1
      + 2594.999980691920 pi_d_a0_a6_proc_0 + 625.959636814077 pi_d_a0_a7_proc_0
      + 2595.993838201641 pi_d_a0_a7_proc_1 - 0.992601286052 pi_d_a7_a0_proc_0
      + 1969.041600101511 pi_d_a7_a0_proc_1
      + 2228.280789285259 pi_d_a0_a8_proc_0
      + 2228.280789285259 pi_d_a0_a8_proc_1 + 366.719210714741 pi_d_a8_a0_proc_0
      + 366.719210714741 pi_d_a8_a0_proc_1 + 834.217984915357 pi_d_a0_a9_proc_0
      + 2595.050207965077 pi_d_a0_a9_proc_1 + 0.000495910648 pi_d_a9_a0_proc_0
      + 1760.832718960368 pi_d_a9_a0_proc_1
      + 3290.881325423957 pi_d_a1_a2_proc_2
      + 1761.137268031295 pi_d_a1_a2_proc_0
      + 2745.302955253011 pi_d_a1_a2_proc_1
      + 1552.333626285115 pi_d_a2_a1_proc_2 + 22.589568892453 pi_d_a2_a1_proc_0
      + 1006.755256114169 pi_d_a2_a1_proc_1
      + 1305.766535015518 pi_d_a1_a3_proc_0 + 0.001275571560 pi_d_a3_a1_proc_0
      + 2903.475615482544 pi_d_a1_a4_proc_2
      + 2923.371586335699 pi_d_a1_a4_proc_1 + 316.244508370762 pi_d_a4_a1_proc_2
      + 336.140479223917 pi_d_a4_a1_proc_1 + 1946.175009684248 pi_d_a1_a5_proc_2
      + 2598.558383490689 pi_d_a1_a5_proc_0
      + 2590.790041416513 pi_d_a1_a5_proc_1 + 648.826053289948 pi_d_a5_a1_proc_2
      + 1301.209427096389 pi_d_a5_a1_proc_0
      + 1293.441085022213 pi_d_a5_a1_proc_1
      + 1780.911164875828 pi_d_a1_a6_proc_2
      + 2433.295746635738 pi_d_a1_a6_proc_0 + 814.087462883350 pi_d_a6_a1_proc_2
      + 1466.472044643260 pi_d_a6_a1_proc_0
      + 1636.353879940287 pi_d_a1_a7_proc_2 + 6.723235687878 pi_d_a1_a7_proc_0
      + 671.990322262814 pi_d_a1_a7_proc_1 + 3552.642254679634 pi_d_a7_a1_proc_2
      + 1923.011610427225 pi_d_a7_a1_proc_0
      + 2588.278697002161 pi_d_a7_a1_proc_1
      + 2472.513684910704 pi_d_a1_a8_proc_0
      + 1167.746570098077 pi_d_a1_a8_proc_1
      + 1427.254125676374 pi_d_a8_a1_proc_0 + 122.487010863747 pi_d_a8_a1_proc_1
      + 3660.401086235304 pi_d_a1_a9_proc_2
      + 2135.445631592022 pi_d_a1_a9_proc_0
      + 2591.510739829114 pi_d_a1_a9_proc_1
      + 1528.496114464344 pi_d_a9_a1_proc_2 + 3.540659821062 pi_d_a9_a1_proc_0
      + 459.605768058154 pi_d_a9_a1_proc_1 + 155.266381987035 pi_d_a2_a3_proc_0
      + 323.692644349635 pi_d_a3_a2_proc_0 + 225.451187538180 pi_d_a2_a4_proc_2
      + 1004.533815709665 pi_d_a2_a4_proc_1
      + 2648.486671122001 pi_d_a4_a2_proc_2
      + 3427.569299293485 pi_d_a4_a2_proc_1 + 295.177027295423 pi_d_a2_a5_proc_2
      + 707.047141573223 pi_d_a2_a5_proc_0 + 1698.978716346018 pi_d_a2_a5_proc_1
      + 1954.041770485648 pi_d_a5_a2_proc_2
      + 2365.911884763447 pi_d_a5_a2_proc_0
      + 3357.843459536241 pi_d_a5_a2_proc_1
      + 2243.516635766798 pi_d_a2_a6_proc_2
      + 2655.387957998066 pi_d_a2_a6_proc_0 + 5.699726799256 pi_d_a6_a2_proc_2
      + 417.571049030524 pi_d_a6_a2_proc_0 + 2678.631912933432 pi_d_a2_a7_proc_2
      + 808.488009152381 pi_d_a2_a7_proc_0 + 2473.455012574287 pi_d_a2_a7_proc_1
      + 2164.581956493365 pi_d_a7_a2_proc_2 + 294.438052712314 pi_d_a7_a2_proc_0
      + 1959.405056134221 pi_d_a7_a2_proc_1
      + 2437.362102956269 pi_d_a2_a8_proc_0
      + 2132.294904990612 pi_d_a2_a8_proc_1 + 635.596923380401 pi_d_a8_a2_proc_0
      + 330.529725414744 pi_d_a8_a2_proc_1 + 2415.633545271095 pi_d_a2_a9_proc_2
      + 650.164831099171 pi_d_a2_a9_proc_0 + 2105.929856183233 pi_d_a2_a9_proc_1
      + 2427.481390235429 pi_d_a9_a2_proc_2 + 662.012676063505 pi_d_a9_a2_proc_0
      + 2117.777701147568 pi_d_a9_a2_proc_1
      + 2544.249999172966 pi_d_a3_a5_proc_0 + 50.750000827034 pi_d_a5_a3_proc_0
      + 2591.466758239229 pi_d_a3_a6_proc_0 + 3.533222452691 pi_d_a6_a3_proc_0
      + 624.966547246775 pi_d_a3_a7_proc_0 + 0.000488281250 pi_d_a7_a3_proc_0
      + 81.568003220470 pi_d_a3_a8_proc_0 + 2513.431996779530 pi_d_a8_a3_proc_0
      + 1.979374684949 pi_d_a3_a9_proc_0 + 832.239106141057 pi_d_a9_a3_proc_0
      + 325.677289715498 pi_d_a4_a5_proc_2 + 2294.953319790194 pi_d_a4_a5_proc_1
      + 300.046680209806 pi_d_a5_a4_proc_2 + 2269.322710284502 pi_d_a5_a4_proc_1
      + 624.721457462667 pi_d_a4_a6_proc_2 + 1.000077247620 pi_d_a6_a4_proc_2
      + 2595.693899907713 pi_d_a4_a7_proc_2
      + 2955.991340572670 pi_d_a4_a7_proc_1 + 624.025141663317 pi_d_a7_a4_proc_2
      + 984.322582328275 pi_d_a7_a4_proc_1 + 1949.847210181347 pi_d_a4_a8_proc_1
      + 20.431274416446 pi_d_a8_a4_proc_1 + 395.178339723425 pi_d_a4_a9_proc_2
      + 650.948991659665 pi_d_a4_a9_proc_1 + 2824.441767927332 pi_d_a9_a4_proc_2
      + 3080.212419863572 pi_d_a9_a4_proc_1 + 1.000927664747 pi_d_a5_a6_proc_2
      + 2594.999681095119 pi_d_a5_a6_proc_0 + 0.001546166430 pi_d_a6_a5_proc_2
      + 2594.000299596802 pi_d_a6_a5_proc_0
      + 2590.771917912532 pi_d_a5_a7_proc_2
      + 2902.755445330584 pi_d_a5_a7_proc_0
      + 3575.788419456599 pi_d_a5_a7_proc_1 + 4.228062779389 pi_d_a7_a5_proc_2
      + 316.211590197441 pi_d_a7_a5_proc_0 + 989.244564323456 pi_d_a7_a5_proc_1
      + 3705.157336218007 pi_d_a5_a8_proc_0
      + 2408.156108956458 pi_d_a5_a8_proc_1
      + 1483.842663781993 pi_d_a8_a5_proc_0 + 186.841436520445 pi_d_a8_a5_proc_1
      + 2454.656491296227 pi_d_a5_a9_proc_2
      + 2871.315208323406 pi_d_a5_a9_proc_0
      + 3335.146204111577 pi_d_a5_a9_proc_1 + 140.244555475420 pi_d_a9_a5_proc_2
      + 556.903272502600 pi_d_a9_a5_proc_0 + 1020.734268290771 pi_d_a9_a5_proc_1
      + 2594.997535813352 pi_d_a6_a7_proc_2
      + 2906.982271184874 pi_d_a6_a7_proc_0 + 0.000009663550 pi_d_a7_a6_proc_2
      + 311.984745035072 pi_d_a7_a6_proc_0 + 5188.999980691920 pi_d_a6_a8_proc_0
      + 2592.724856174641 pi_d_a6_a9_proc_2
      + 3009.384781155290 pi_d_a6_a9_proc_0 + 2.173755381988 pi_d_a9_a6_proc_2
      + 418.833680362636 pi_d_a9_a6_proc_0 + 2594.001236915555 pi_d_a7_a8_proc_0
      + 1970.035438303118 pi_d_a7_a8_proc_1 + 624.965798612471 pi_d_a8_a7_proc_0
      + 1.000000000034 pi_d_a8_a7_proc_1 + 3159.283369319563 pi_d_a7_a9_proc_2
      + 1293.928068287891 pi_d_a7_a9_proc_0
      + 2430.794492725174 pi_d_a7_a9_proc_1
      + 2029.612749097811 pi_d_a9_a7_proc_2 + 164.257448066139 pi_d_a9_a7_proc_0
      + 1301.123872503422 pi_d_a9_a7_proc_1
      + 2593.831938611272 pi_d_a8_a9_proc_0
      + 1760.664161660991 pi_d_a8_a9_proc_1 + 834.386542214734 pi_d_a9_a8_proc_0
      + 1.218765264453 pi_d_a9_a8_proc_1 + pi_y2_a0_proc_0
      + 0.000000000000 pi_y2_a0_proc_1 + 0.497005470090 pi_y2_a1_proc_0
      + 0.502993993461 pi_y2_a1_proc_1 + 0.000000536449 pi_y2_a1_proc_2
      + 0.815744400024 pi_y2_a2_proc_0 + 0.050954267384 pi_y2_a2_proc_1
      + 0.133301332591 pi_y2_a2_proc_2 + pi_y2_a3_proc_0
      + 0.240833275020 pi_y2_a4_proc_1 + 0.759166724980 pi_y2_a4_proc_2
      + 0.000000000000 pi_y2_a5_proc_0 + 0.000000946231 pi_y2_a5_proc_1
      + 0.999999053769 pi_y2_a5_proc_2 + 0.000000007443 pi_y2_a6_proc_0
      + 0.999999992557 pi_y2_a6_proc_2 + 0.759457580752 pi_y2_a7_proc_0
      + 0.240541465573 pi_y2_a7_proc_1 + 0.000000953674 pi_y2_a7_proc_2
      + 0.000000000000 pi_y2_a8_proc_0 + pi_y2_a8_proc_1
      + 0.678790099913 pi_y2_a9_proc_0 + 0.321170806891 pi_y2_a9_proc_1
      + 0.000039093196 pi_y2_a9_proc_2
Subject To
 c1: 0.001782531194 pi_nr_a0 + 0.001019367992 pi_nr_a1 + 0.000771010023 pi_nr_a2
     + 0.001369863014 pi_nr_a3 + 0.000960614793 pi_nr_a4
     + 0.000851788756 pi_nr_a5 + 0.005000000000 pi_nr_a6
     + 0.001461988304 pi_nr_a7 + 0.001170960187 pi_nr_a8
     + 0.000775193798 pi_nr_a9 + pi_p_a3_a1 + pi_p_a6_a7 + pi_p_a6_a8
     + pi_p_a0_a9 + pi_p_a2_a9 + pi_p_a6_a4 + pi_p_a5_a3 + pi_p_a0_a3
     + pi_p_a2_a6 + 2595 pi_d_a0_a1_proc_0 + 2595 pi_d_a0_a1_proc_1
     + 2594 pi_d_a0_a2_proc_1 + pi_d_a2_a0_proc_0 + 2595 pi_d_a2_a0_proc_1
     + pi_d_a0_a3_proc_0 + 5189 pi_d_a0_a4_proc_1 + 2595 pi_d_a0_a5_proc_0
     + 3892 pi_d_a0_a5_proc_1 + 1297 pi_d_a5_a0_proc_1 + 2595 pi_d_a0_a6_proc_0
     + 2 pi_d_a0_a7_proc_0 + 2596 pi_d_a0_a7_proc_1 - pi_d_a7_a0_proc_0
     + 2593 pi_d_a7_a0_proc_1 + 2595 pi_d_a0_a8_proc_0 + 2595 pi_d_a0_a8_proc_1
     + pi_d_a0_a9_proc_0 + 2595 pi_d_a0_a9_proc_1 + 2594 pi_d_a9_a0_proc_1
     + 3891 pi_d_a1_a2_proc_2 + 2594 pi_d_a1_a2_proc_0 + 2594 pi_d_a1_a2_proc_1
     + 1298 pi_d_a2_a1_proc_2 + pi_d_a2_a1_proc_0 + pi_d_a2_a1_proc_1
     + 2595 pi_d_a1_a3_proc_0 + 2595 pi_d_a1_a4_proc_2 + 2595 pi_d_a1_a4_proc_1
     + 1947 pi_d_a1_a5_proc_2 + 3244 pi_d_a1_a5_proc_0 + 1947 pi_d_a1_a5_proc_1
     + 648 pi_d_a5_a1_proc_2 + 1945 pi_d_a5_a1_proc_0 + 648 pi_d_a5_a1_proc_1
     + 1622 pi_d_a1_a6_proc_2 + 2919 pi_d_a1_a6_proc_0 + 973 pi_d_a6_a1_proc_2
     + 2270 pi_d_a6_a1_proc_0 + 1298 pi_d_a1_a7_proc_2 + pi_d_a1_a7_proc_0
     + pi_d_a1_a7_proc_1 + 3891 pi_d_a7_a1_proc_2 + 2594 pi_d_a7_a1_proc_0
     + 2594 pi_d_a7_a1_proc_1 + 2595 pi_d_a1_a8_proc_0 + pi_d_a1_a8_proc_1
     + 2594 pi_d_a8_a1_proc_0 + 3892 pi_d_a1_a9_proc_2 + 2595 pi_d_a1_a9_proc_0
     + 2595 pi_d_a1_a9_proc_1 + 1297 pi_d_a9_a1_proc_2 + 2 pi_d_a2_a3_proc_0
     - pi_d_a3_a2_proc_0 + pi_d_a2_a4_proc_2 + 1298 pi_d_a2_a4_proc_1
     + 2594 pi_d_a4_a2_proc_2 + 3891 pi_d_a4_a2_proc_1 + pi_d_a2_a5_proc_2
     + pi_d_a2_a5_proc_0 + 1298 pi_d_a2_a5_proc_1 + 2594 pi_d_a5_a2_proc_2
     + 2594 pi_d_a5_a2_proc_0 + 3891 pi_d_a5_a2_proc_1 + 2595 pi_d_a2_a6_proc_2
     + 2595 pi_d_a2_a6_proc_0 + 2596 pi_d_a2_a7_proc_2 + 2 pi_d_a2_a7_proc_0
     + 2596 pi_d_a2_a7_proc_1 + 2593 pi_d_a7_a2_proc_2 - pi_d_a7_a2_proc_0
     + 2593 pi_d_a7_a2_proc_1 + 2596 pi_d_a2_a8_proc_0 + 2596 pi_d_a2_a8_proc_1
     - pi_d_a8_a2_proc_0 - pi_d_a8_a2_proc_1 + 2595 pi_d_a2_a9_proc_2
     + pi_d_a2_a9_proc_0 + 2595 pi_d_a2_a9_proc_1 + 2594 pi_d_a9_a2_proc_2
     + 2594 pi_d_a9_a2_proc_1 + 2594 pi_d_a3_a5_proc_0 + pi_d_a5_a3_proc_0
     + 2594 pi_d_a3_a6_proc_0 + pi_d_a6_a3_proc_0 + pi_d_a3_a7_proc_0
     + 2595 pi_d_a8_a3_proc_0 + pi_d_a9_a3_proc_0 + 2594 pi_d_a4_a5_proc_1
     + pi_d_a5_a4_proc_2 + 2595 pi_d_a5_a4_proc_1 + pi_d_a6_a4_proc_2
     + 2595 pi_d_a4_a7_proc_2 + 3892 pi_d_a4_a7_proc_1 + 1297 pi_d_a7_a4_proc_1
     + 2595 pi_d_a4_a8_proc_1 + 1297 pi_d_a4_a9_proc_1 + 2595 pi_d_a9_a4_proc_2
     + 3892 pi_d_a9_a4_proc_1 + pi_d_a5_a6_proc_2 + 2595 pi_d_a5_a6_proc_0
     + 2594 pi_d_a6_a5_proc_0 + 2596 pi_d_a5_a7_proc_2 + 2596 pi_d_a5_a7_proc_0
     + 3893 pi_d_a5_a7_proc_1 - pi_d_a7_a5_proc_2 - pi_d_a7_a5_proc_0
     + 1296 pi_d_a7_a5_proc_1 + 3891 pi_d_a5_a8_proc_0 + 2594 pi_d_a5_a8_proc_1
     + 1298 pi_d_a8_a5_proc_0 + pi_d_a8_a5_proc_1 + 2595 pi_d_a5_a9_proc_2
     + 2595 pi_d_a5_a9_proc_0 + 3892 pi_d_a5_a9_proc_1 + 1297 pi_d_a9_a5_proc_1
     + 2595 pi_d_a6_a7_proc_2 + 2595 pi_d_a6_a7_proc_0 + 5189 pi_d_a6_a8_proc_0
     + 2593 pi_d_a6_a9_proc_2 + 2593 pi_d_a6_a9_proc_0 + 2 pi_d_a9_a6_proc_2
     + 2 pi_d_a9_a6_proc_0 + 2594 pi_d_a7_a8_proc_0 + 2594 pi_d_a7_a8_proc_1
     + pi_d_a8_a7_proc_0 + pi_d_a8_a7_proc_1 + 2594 pi_d_a7_a9_proc_2
     + 2594 pi_d_a7_a9_proc_1 + 2595 pi_d_a9_a7_proc_2 + pi_d_a9_a7_proc_0
     + 2595 pi_d_a9_a7_proc_1 + 2594 pi_d_a8_a9_proc_0 + 2594 pi_d_a8_a9_proc_1
     + pi_d_a9_a8_proc_0 + pi_d_a9_a8_proc_1 + pi_y2_a0_proc_0 + pi_y2_a1_proc_1
     + pi_y2_a2_proc_0 + pi_y2_a3_proc_0 + pi_y2_a4_proc_2 + pi_y2_a5_proc_2
     + pi_y2_a6_proc_2 + pi_y2_a7_proc_0 + pi_y2_a8_proc_1 + pi_y2_a9_proc_0 = 
     0.000142653352
 c2: pi_nr_a0 + pi_nr_a1 + pi_nr_a2 + pi_nr_a3 + pi_nr_a4 + pi_nr_a5 + pi_nr_a6
     + pi_nr_a7 + pi_nr_a8 + pi_nr_a9 - pi_y1_a0 - pi_y1_a1 - pi_y1_a2
     - pi_y1_a3 - pi_y1_a4 - pi_y1_a5 - pi_y1_a6 - pi_y1_a7 - pi_y1_a8
     - pi_y1_a9 >= 1
 c3: - pi_p_a1_a0 - pi_p_a9_a0 + pi_p_a0_a9 + pi_p_a0_a3 + pi_d_a0_a1_proc_0
     + pi_d_a0_a1_proc_1 - pi_d_a1_a0_proc_0 - pi_d_a1_a0_proc_1
     + pi_d_a0_a2_proc_0 + pi_d_a0_a2_proc_1 - pi_d_a2_a0_proc_0
     - pi_d_a2_a0_proc_1 + pi_d_a0_a3_proc_0 - pi_d_a3_a0_proc_0
     + pi_d_a0_a4_proc_1 - pi_d_a4_a0_proc_1 + pi_d_a0_a5_proc_0
     + pi_d_a0_a5_proc_1 - pi_d_a5_a0_proc_0 - pi_d_a5_a0_proc_1
     + pi_d_a0_a6_proc_0 - pi_d_a6_a0_proc_0 + pi_d_a0_a7_proc_0
     + pi_d_a0_a7_proc_1 - pi_d_a7_a0_proc_0 - pi_d_a7_a0_proc_1
     + pi_d_a0_a8_proc_0 + pi_d_a0_a8_proc_1 - pi_d_a8_a0_proc_0
     - pi_d_a8_a0_proc_1 + pi_d_a0_a9_proc_0 + pi_d_a0_a9_proc_1
     - pi_d_a9_a0_proc_0 - pi_d_a9_a0_proc_1 >= 0
 c4: 561 pi_p_a0_a9 + 561 pi_p_a0_a3 + 561 pi_d_a0_a1_proc_0
     + 561 pi_d_a0_a2_proc_0 + 561 pi_d_a0_a3_proc_0 + 561 pi_d_a0_a5_proc_0
     + 561 pi_d_a0_a6_proc_0 + 561 pi_d_a0_a7_proc_0 + 561 pi_d_a0_a8_proc_0
     + 561 pi_d_a0_a9_proc_0 + pi_y1_a0 + pi_y2_a0_proc_0 >= 0
 c5: 754 pi_p_a0_a9 + 754 pi_p_a0_a3 + 754 pi_d_a0_a1_proc_1
     + 754 pi_d_a0_a2_proc_1 + 754 pi_d_a0_a4_proc_1 + 754 pi_d_a0_a5_proc_1
     + 754 pi_d_a0_a7_proc_1 + 754 pi_d_a0_a8_proc_1 + 754 pi_d_a0_a9_proc_1
     + pi_y1_a0 + pi_y2_a0_proc_1 >= 0
 c6: pi_p_a1_a0 + pi_p_a1_a2 - pi_p_a3_a1 - pi_p_a4_a1 - pi_p_a8_a1
     - pi_d_a0_a1_proc_0 - pi_d_a0_a1_proc_1 + pi_d_a1_a0_proc_0
     + pi_d_a1_a0_proc_1 + pi_d_a1_a2_proc_2 + pi_d_a1_a2_proc_0
     + pi_d_a1_a2_proc_1 - pi_d_a2_a1_proc_2 - pi_d_a2_a1_proc_0
     - pi_d_a2_a1_proc_1 + pi_d_a1_a3_proc_0 - pi_d_a3_a1_proc_0
     + pi_d_a1_a4_proc_2 + pi_d_a1_a4_proc_1 - pi_d_a4_a1_proc_2
     - pi_d_a4_a1_proc_1 + pi_d_a1_a5_proc_2 + pi_d_a1_a5_proc_0
     + pi_d_a1_a5_proc_1 - pi_d_a5_a1_proc_2 - pi_d_a5_a1_proc_0
     - pi_d_a5_a1_proc_1 + pi_d_a1_a6_proc_2 + pi_d_a1_a6_proc_0
     - pi_d_a6_a1_proc_2 - pi_d_a6_a1_proc_0 + pi_d_a1_a7_proc_2
     + pi_d_a1_a7_proc_0 + pi_d_a1_a7_proc_1 - pi_d_a7_a1_proc_2
     - pi_d_a7_a1_proc_0 - pi_d_a7_a1_proc_1 + pi_d_a1_a8_proc_0
     + pi_d_a1_a8_proc_1 - pi_d_a8_a1_proc_0 - pi_d_a8_a1_proc_1
     + pi_d_a1_a9_proc_2 + pi_d_a1_a9_proc_0 + pi_d_a1_a9_proc_1
     - pi_d_a9_a1_proc_2 - pi_d_a9_a1_proc_0 - pi_d_a9_a1_proc_1 >= 0
 c7: 714 pi_p_a1_a0 + 714 pi_p_a1_a2 + 714 pi_d_a1_a0_proc_0
     + 714 pi_d_a1_a2_proc_0 + 714 pi_d_a1_a3_proc_0 + 714 pi_d_a1_a5_proc_0
     + 714 pi_d_a1_a6_proc_0 + 714 pi_d_a1_a7_proc_0 + 714 pi_d_a1_a8_proc_0
     + 714 pi_d_a1_a9_proc_0 + pi_y1_a1 + pi_y2_a1_proc_0 >= 0
 c8: 981 pi_p_a1_a0 + 981 pi_p_a1_a2 + 981 pi_d_a1_a0_proc_1
     + 981 pi_d_a1_a2_proc_1 + 981 pi_d_a1_a4_proc_1 + 981 pi_d_a1_a5_proc_1
     + 981 pi_d_a1_a7_proc_1 + 981 pi_d_a1_a8_proc_1 + 981 pi_d_a1_a9_proc_1
     + pi_y1_a1 + pi_y2_a1_proc_1 >= 0
 c9: 788 pi_p_a1_a0 + 788 pi_p_a1_a2 + 788 pi_d_a1_a2_proc_2
     + 788 pi_d_a1_a4_proc_2 + 788 pi_d_a1_a5_proc_2 + 788 pi_d_a1_a6_proc_2
     + 788 pi_d_a1_a7_proc_2 + 788 pi_d_a1_a9_proc_2 + pi_y1_a1
     + pi_y2_a1_proc_2 >= 0
 c10: - pi_p_a1_a2 + pi_p_a2_a9 + pi_p_a2_a6 - pi_d_a0_a2_proc_0
      - pi_d_a0_a2_proc_1 + pi_d_a2_a0_proc_0 + pi_d_a2_a0_proc_1
      - pi_d_a1_a2_proc_2 - pi_d_a1_a2_proc_0 - pi_d_a1_a2_proc_1
      + pi_d_a2_a1_proc_2 + pi_d_a2_a1_proc_0 + pi_d_a2_a1_proc_1
      + pi_d_a2_a3_proc_0 - pi_d_a3_a2_proc_0 + pi_d_a2_a4_proc_2
      + pi_d_a2_a4_proc_1 - pi_d_a4_a2_proc_2 - pi_d_a4_a2_proc_1
      + pi_d_a2_a5_proc_2 + pi_d_a2_a5_proc_0 + pi_d_a2_a5_proc_1
      - pi_d_a5_a2_proc_2 - pi_d_a5_a2_proc_0 - pi_d_a5_a2_proc_1
      + pi_d_a2_a6_proc_2 + pi_d_a2_a6_proc_0 - pi_d_a6_a2_proc_2
      - pi_d_a6_a2_proc_0 + pi_d_a2_a7_proc_2 + pi_d_a2_a7_proc_0
      + pi_d_a2_a7_proc_1 - pi_d_a7_a2_proc_2 - pi_d_a7_a2_proc_0
      - pi_d_a7_a2_proc_1 + pi_d_a2_a8_proc_0 + pi_d_a2_a8_proc_1
      - pi_d_a8_a2_proc_0 - pi_d_a8_a2_proc_1 + pi_d_a2_a9_proc_2
      + pi_d_a2_a9_proc_0 + pi_d_a2_a9_proc_1 - pi_d_a9_a2_proc_2
      - pi_d_a9_a2_proc_0 - pi_d_a9_a2_proc_1 >= 0
 c11: 1297 pi_p_a2_a9 + 1297 pi_p_a2_a6 + 1297 pi_d_a2_a0_proc_0
      + 1297 pi_d_a2_a1_proc_0 + 1297 pi_d_a2_a3_proc_0 + 1297 pi_d_a2_a5_proc_0
      + 1297 pi_d_a2_a6_proc_0 + 1297 pi_d_a2_a7_proc_0 + 1297 pi_d_a2_a8_proc_0
      + 1297 pi_d_a2_a9_proc_0 + pi_y1_a2 + pi_y2_a2_proc_0 >= 0
 c12: 728 pi_p_a2_a9 + 728 pi_p_a2_a6 + 728 pi_d_a2_a0_proc_1
      + 728 pi_d_a2_a1_proc_1 + 728 pi_d_a2_a4_proc_1 + 728 pi_d_a2_a5_proc_1
      + 728 pi_d_a2_a7_proc_1 + 728 pi_d_a2_a8_proc_1 + 728 pi_d_a2_a9_proc_1
      + pi_y1_a2 + pi_y2_a2_proc_1 >= 0
 c13: 617 pi_p_a2_a9 + 617 pi_p_a2_a6 + 617 pi_d_a2_a1_proc_2
      + 617 pi_d_a2_a4_proc_2 + 617 pi_d_a2_a5_proc_2 + 617 pi_d_a2_a6_proc_2
      + 617 pi_d_a2_a7_proc_2 + 617 pi_d_a2_a9_proc_2 + pi_y1_a2
      + pi_y2_a2_proc_2 >= 0
 c14: pi_p_a3_a1 + pi_p_a3_a5 + pi_p_a3_a4 - pi_p_a5_a3 - pi_p_a0_a3
      - pi_d_a0_a3_proc_0 + pi_d_a3_a0_proc_0 - pi_d_a1_a3_proc_0
      + pi_d_a3_a1_proc_0 - pi_d_a2_a3_proc_0 + pi_d_a3_a2_proc_0
      + pi_d_a3_a5_proc_0 - pi_d_a5_a3_proc_0 + pi_d_a3_a6_proc_0
      - pi_d_a6_a3_proc_0 + pi_d_a3_a7_proc_0 - pi_d_a7_a3_proc_0
      + pi_d_a3_a8_proc_0 - pi_d_a8_a3_proc_0 + pi_d_a3_a9_proc_0
      - pi_d_a9_a3_proc_0 >= 0
 c15: 730 pi_p_a3_a1 + 730 pi_p_a3_a5 + 730 pi_p_a3_a4 + 730 pi_d_a3_a0_proc_0
      + 730 pi_d_a3_a1_proc_0 + 730 pi_d_a3_a2_proc_0 + 730 pi_d_a3_a5_proc_0
      + 730 pi_d_a3_a6_proc_0 + 730 pi_d_a3_a7_proc_0 + 730 pi_d_a3_a8_proc_0
      + 730 pi_d_a3_a9_proc_0 + pi_y1_a3 + pi_y2_a3_proc_0 >= 0
 c16: pi_p_a4_a1 + pi_p_a4_a6 - pi_p_a8_a4 - pi_p_a3_a4 - pi_p_a6_a4
      - pi_d_a0_a4_proc_1 + pi_d_a4_a0_proc_1 - pi_d_a1_a4_proc_2
      - pi_d_a1_a4_proc_1 + pi_d_a4_a1_proc_2 + pi_d_a4_a1_proc_1
      - pi_d_a2_a4_proc_2 - pi_d_a2_a4_proc_1 + pi_d_a4_a2_proc_2
      + pi_d_a4_a2_proc_1 + pi_d_a4_a5_proc_2 + pi_d_a4_a5_proc_1
      - pi_d_a5_a4_proc_2 - pi_d_a5_a4_proc_1 + pi_d_a4_a6_proc_2
      - pi_d_a6_a4_proc_2 + pi_d_a4_a7_proc_2 + pi_d_a4_a7_proc_1
      - pi_d_a7_a4_proc_2 - pi_d_a7_a4_proc_1 + pi_d_a4_a8_proc_1
      - pi_d_a8_a4_proc_1 + pi_d_a4_a9_proc_2 + pi_d_a4_a9_proc_1
      - pi_d_a9_a4_proc_2 - pi_d_a9_a4_proc_1 >= 0
 c17: 1218 pi_p_a4_a1 + 1218 pi_p_a4_a6 + 1218 pi_d_a4_a0_proc_1
      + 1218 pi_d_a4_a1_proc_1 + 1218 pi_d_a4_a2_proc_1 + 1218 pi_d_a4_a5_proc_1
      + 1218 pi_d_a4_a7_proc_1 + 1218 pi_d_a4_a8_proc_1 + 1218 pi_d_a4_a9_proc_1
      + pi_y1_a4 + pi_y2_a4_proc_1 >= 0
 c18: 1041 pi_p_a4_a1 + 1041 pi_p_a4_a6 + 1041 pi_d_a4_a1_proc_2
      + 1041 pi_d_a4_a2_proc_2 + 1041 pi_d_a4_a5_proc_2 + 1041 pi_d_a4_a6_proc_2
      + 1041 pi_d_a4_a7_proc_2 + 1041 pi_d_a4_a9_proc_2 + pi_y1_a4
      + pi_y2_a4_proc_2 >= 0
 c19: - pi_p_a3_a5 + pi_p_a5_a3 - pi_d_a0_a5_proc_0 - pi_d_a0_a5_proc_1
      + pi_d_a5_a0_proc_0 + pi_d_a5_a0_proc_1 - pi_d_a1_a5_proc_2
      - pi_d_a1_a5_proc_0 - pi_d_a1_a5_proc_1 + pi_d_a5_a1_proc_2
      + pi_d_a5_a1_proc_0 + pi_d_a5_a1_proc_1 - pi_d_a2_a5_proc_2
      - pi_d_a2_a5_proc_0 - pi_d_a2_a5_proc_1 + pi_d_a5_a2_proc_2
      + pi_d_a5_a2_proc_0 + pi_d_a5_a2_proc_1 - pi_d_a3_a5_proc_0
      + pi_d_a5_a3_proc_0 - pi_d_a4_a5_proc_2 - pi_d_a4_a5_proc_1
      + pi_d_a5_a4_proc_2 + pi_d_a5_a4_proc_1 + pi_d_a5_a6_proc_2
      + pi_d_a5_a6_proc_0 - pi_d_a6_a5_proc_2 - pi_d_a6_a5_proc_0
      + pi_d_a5_a7_proc_2 + pi_d_a5_a7_proc_0 + pi_d_a5_a7_proc_1
      - pi_d_a7_a5_proc_2 - pi_d_a7_a5_proc_0 - pi_d_a7_a5_proc_1
      + pi_d_a5_a8_proc_0 + pi_d_a5_a8_proc_1 - pi_d_a8_a5_proc_0
      - pi_d_a8_a5_proc_1 + pi_d_a5_a9_proc_2 + pi_d_a5_a9_proc_0
      + pi_d_a5_a9_proc_1 - pi_d_a9_a5_proc_2 - pi_d_a9_a5_proc_0
      - pi_d_a9_a5_proc_1 >= 0
 c20: 1068 pi_p_a5_a3 + 1068 pi_d_a5_a0_proc_0 + 1068 pi_d_a5_a1_proc_0
      + 1068 pi_d_a5_a2_proc_0 + 1068 pi_d_a5_a3_proc_0 + 1068 pi_d_a5_a6_proc_0
      + 1068 pi_d_a5_a7_proc_0 + 1068 pi_d_a5_a8_proc_0 + 1068 pi_d_a5_a9_proc_0
      + pi_y1_a5 + pi_y2_a5_proc_0 >= 0
 c21: 1015 pi_p_a5_a3 + 1015 pi_d_a5_a0_proc_1 + 1015 pi_d_a5_a1_proc_1
      + 1015 pi_d_a5_a2_proc_1 + 1015 pi_d_a5_a4_proc_1 + 1015 pi_d_a5_a7_proc_1
      + 1015 pi_d_a5_a8_proc_1 + 1015 pi_d_a5_a9_proc_1 + pi_y1_a5
      + pi_y2_a5_proc_1 >= 0
 c22: 1174 pi_p_a5_a3 + 1174 pi_d_a5_a1_proc_2 + 1174 pi_d_a5_a2_proc_2
      + 1174 pi_d_a5_a4_proc_2 + 1174 pi_d_a5_a6_proc_2 + 1174 pi_d_a5_a7_proc_2
      + 1174 pi_d_a5_a9_proc_2 + pi_y1_a5 + pi_y2_a5_proc_2 >= 0
 c23: - pi_p_a4_a6 + pi_p_a6_a7 + pi_p_a6_a8 + pi_p_a6_a4 - pi_p_a2_a6
      - pi_d_a0_a6_proc_0 + pi_d_a6_a0_proc_0 - pi_d_a1_a6_proc_2
      - pi_d_a1_a6_proc_0 + pi_d_a6_a1_proc_2 + pi_d_a6_a1_proc_0
      - pi_d_a2_a6_proc_2 - pi_d_a2_a6_proc_0 + pi_d_a6_a2_proc_2
      + pi_d_a6_a2_proc_0 - pi_d_a3_a6_proc_0 + pi_d_a6_a3_proc_0
      - pi_d_a4_a6_proc_2 + pi_d_a6_a4_proc_2 - pi_d_a5_a6_proc_2
      - pi_d_a5_a6_proc_0 + pi_d_a6_a5_proc_2 + pi_d_a6_a5_proc_0
      + pi_d_a6_a7_proc_2 + pi_d_a6_a7_proc_0 - pi_d_a7_a6_proc_2
      - pi_d_a7_a6_proc_0 + pi_d_a6_a8_proc_0 - pi_d_a8_a6_proc_0
      + pi_d_a6_a9_proc_2 + pi_d_a6_a9_proc_0 - pi_d_a9_a6_proc_2
      - pi_d_a9_a6_proc_0 >= 0
 c24: 525 pi_p_a6_a7 + 525 pi_p_a6_a8 + 525 pi_p_a6_a4 + 525 pi_d_a6_a0_proc_0
      + 525 pi_d_a6_a1_proc_0 + 525 pi_d_a6_a2_proc_0 + 525 pi_d_a6_a3_proc_0
      + 525 pi_d_a6_a5_proc_0 + 525 pi_d_a6_a7_proc_0 + 525 pi_d_a6_a8_proc_0
      + 525 pi_d_a6_a9_proc_0 + pi_y1_a6 + pi_y2_a6_proc_0 >= 0
 c25: 200 pi_p_a6_a7 + 200 pi_p_a6_a8 + 200 pi_p_a6_a4 + 200 pi_d_a6_a1_proc_2
      + 200 pi_d_a6_a2_proc_2 + 200 pi_d_a6_a4_proc_2 + 200 pi_d_a6_a5_proc_2
      + 200 pi_d_a6_a7_proc_2 + 200 pi_d_a6_a9_proc_2 + pi_y1_a6
      + pi_y2_a6_proc_2 >= 0
 c26: - pi_p_a6_a7 + pi_p_a7_a8 - pi_d_a0_a7_proc_0 - pi_d_a0_a7_proc_1
      + pi_d_a7_a0_proc_0 + pi_d_a7_a0_proc_1 - pi_d_a1_a7_proc_2
      - pi_d_a1_a7_proc_0 - pi_d_a1_a7_proc_1 + pi_d_a7_a1_proc_2
      + pi_d_a7_a1_proc_0 + pi_d_a7_a1_proc_1 - pi_d_a2_a7_proc_2
      - pi_d_a2_a7_proc_0 - pi_d_a2_a7_proc_1 + pi_d_a7_a2_proc_2
      + pi_d_a7_a2_proc_0 + pi_d_a7_a2_proc_1 - pi_d_a3_a7_proc_0
      + pi_d_a7_a3_proc_0 - pi_d_a4_a7_proc_2 - pi_d_a4_a7_proc_1
      + pi_d_a7_a4_proc_2 + pi_d_a7_a4_proc_1 - pi_d_a5_a7_proc_2
      - pi_d_a5_a7_proc_0 - pi_d_a5_a7_proc_1 + pi_d_a7_a5_proc_2
      + pi_d_a7_a5_proc_0 + pi_d_a7_a5_proc_1 - pi_d_a6_a7_proc_2
      - pi_d_a6_a7_proc_0 + pi_d_a7_a6_proc_2 + pi_d_a7_a6_proc_0
      + pi_d_a7_a8_proc_0 + pi_d_a7_a8_proc_1 - pi_d_a8_a7_proc_0
      - pi_d_a8_a7_proc_1 + pi_d_a7_a9_proc_2 + pi_d_a7_a9_proc_0
      + pi_d_a7_a9_proc_1 - pi_d_a9_a7_proc_2 - pi_d_a9_a7_proc_0
      - pi_d_a9_a7_proc_1 >= 0
 c27: 684 pi_p_a7_a8 + 684 pi_d_a7_a0_proc_0 + 684 pi_d_a7_a1_proc_0
      + 684 pi_d_a7_a2_proc_0 + 684 pi_d_a7_a3_proc_0 + 684 pi_d_a7_a5_proc_0
      + 684 pi_d_a7_a6_proc_0 + 684 pi_d_a7_a8_proc_0 + 684 pi_d_a7_a9_proc_0
      + pi_y1_a7 + pi_y2_a7_proc_0 >= 0
 c28: 1134 pi_p_a7_a8 + 1134 pi_d_a7_a0_proc_1 + 1134 pi_d_a7_a1_proc_1
      + 1134 pi_d_a7_a2_proc_1 + 1134 pi_d_a7_a4_proc_1 + 1134 pi_d_a7_a5_proc_1
      + 1134 pi_d_a7_a8_proc_1 + 1134 pi_d_a7_a9_proc_1 + pi_y1_a7
      + pi_y2_a7_proc_1 >= 0
 c29: 974 pi_p_a7_a8 + 974 pi_d_a7_a1_proc_2 + 974 pi_d_a7_a2_proc_2
      + 974 pi_d_a7_a4_proc_2 + 974 pi_d_a7_a5_proc_2 + 974 pi_d_a7_a6_proc_2
      + 974 pi_d_a7_a9_proc_2 + pi_y1_a7 + pi_y2_a7_proc_2 >= 0
 c30: pi_p_a8_a4 + pi_p_a8_a9 - pi_p_a7_a8 - pi_p_a6_a8 + pi_p_a8_a1
      - pi_d_a0_a8_proc_0 - pi_d_a0_a8_proc_1 + pi_d_a8_a0_proc_0
      + pi_d_a8_a0_proc_1 - pi_d_a1_a8_proc_0 - pi_d_a1_a8_proc_1
      + pi_d_a8_a1_proc_0 + pi_d_a8_a1_proc_1 - pi_d_a2_a8_proc_0
      - pi_d_a2_a8_proc_1 + pi_d_a8_a2_proc_0 + pi_d_a8_a2_proc_1
      - pi_d_a3_a8_proc_0 + pi_d_a8_a3_proc_0 - pi_d_a4_a8_proc_1
      + pi_d_a8_a4_proc_1 - pi_d_a5_a8_proc_0 - pi_d_a5_a8_proc_1
      + pi_d_a8_a5_proc_0 + pi_d_a8_a5_proc_1 - pi_d_a6_a8_proc_0
      + pi_d_a8_a6_proc_0 - pi_d_a7_a8_proc_0 - pi_d_a7_a8_proc_1
      + pi_d_a8_a7_proc_0 + pi_d_a8_a7_proc_1 + pi_d_a8_a9_proc_0
      + pi_d_a8_a9_proc_1 - pi_d_a9_a8_proc_0 - pi_d_a9_a8_proc_1 >= 0
 c31: 1160 pi_p_a8_a4 + 1160 pi_p_a8_a9 + 1160 pi_p_a8_a1
      + 1160 pi_d_a8_a0_proc_0 + 1160 pi_d_a8_a1_proc_0 + 1160 pi_d_a8_a2_proc_0
      + 1160 pi_d_a8_a3_proc_0 + 1160 pi_d_a8_a5_proc_0 + 1160 pi_d_a8_a6_proc_0
      + 1160 pi_d_a8_a7_proc_0 + 1160 pi_d_a8_a9_proc_0 + pi_y1_a8
      + pi_y2_a8_proc_0 >= 0
 c32: 854 pi_p_a8_a4 + 854 pi_p_a8_a9 + 854 pi_p_a8_a1 + 854 pi_d_a8_a0_proc_1
      + 854 pi_d_a8_a1_proc_1 + 854 pi_d_a8_a2_proc_1 + 854 pi_d_a8_a4_proc_1
      + 854 pi_d_a8_a5_proc_1 + 854 pi_d_a8_a7_proc_1 + 854 pi_d_a8_a9_proc_1
      + pi_y1_a8 + pi_y2_a8_proc_1 >= 0
 c33: pi_p_a9_a0 - pi_p_a8_a9 - pi_p_a0_a9 - pi_p_a2_a9 - pi_d_a0_a9_proc_0
      - pi_d_a0_a9_proc_1 + pi_d_a9_a0_proc_0 + pi_d_a9_a0_proc_1
      - pi_d_a1_a9_proc_2 - pi_d_a1_a9_proc_0 - pi_d_a1_a9_proc_1
      + pi_d_a9_a1_proc_2 + pi_d_a9_a1_proc_0 + pi_d_a9_a1_proc_1
      - pi_d_a2_a9_proc_2 - pi_d_a2_a9_proc_0 - pi_d_a2_a9_proc_1
      + pi_d_a9_a2_proc_2 + pi_d_a9_a2_proc_0 + pi_d_a9_a2_proc_1
      - pi_d_a3_a9_proc_0 + pi_d_a9_a3_proc_0 - pi_d_a4_a9_proc_2
      - pi_d_a4_a9_proc_1 + pi_d_a9_a4_proc_2 + pi_d_a9_a4_proc_1
      - pi_d_a5_a9_proc_2 - pi_d_a5_a9_proc_0 - pi_d_a5_a9_proc_1
      + pi_d_a9_a5_proc_2 + pi_d_a9_a5_proc_0 + pi_d_a9_a5_proc_1
      - pi_d_a6_a9_proc_2 - pi_d_a6_a9_proc_0 + pi_d_a9_a6_proc_2
      + pi_d_a9_a6_proc_0 - pi_d_a7_a9_proc_2 - pi_d_a7_a9_proc_0
      - pi_d_a7_a9_proc_1 + pi_d_a9_a7_proc_2 + pi_d_a9_a7_proc_0
      + pi_d_a9_a7_proc_1 - pi_d_a8_a9_proc_0 - pi_d_a8_a9_proc_1
      + pi_d_a9_a8_proc_0 + pi_d_a9_a8_proc_1 >= 0
 c34: 1290 pi_p_a9_a0 + 1290 pi_d_a9_a0_proc_0 + 1290 pi_d_a9_a1_proc_0
      + 1290 pi_d_a9_a2_proc_0 + 1290 pi_d_a9_a3_proc_0 + 1290 pi_d_a9_a5_proc_0
      + 1290 pi_d_a9_a6_proc_0 + 1290 pi_d_a9_a7_proc_0 + 1290 pi_d_a9_a8_proc_0
      + pi_y1_a9 + pi_y2_a9_proc_0 >= 0
 c35: 831 pi_p_a9_a0 + 831 pi_d_a9_a0_proc_1 + 831 pi_d_a9_a1_proc_1
      + 831 pi_d_a9_a2_proc_1 + 831 pi_d_a9_a4_proc_1 + 831 pi_d_a9_a5_proc_1
      + 831 pi_d_a9_a7_proc_1 + 831 pi_d_a9_a8_proc_1 + pi_y1_a9
      + pi_y2_a9_proc_1 >= 0
 c36: 1073 pi_p_a9_a0 + 1073 pi_d_a9_a1_proc_2 + 1073 pi_d_a9_a2_proc_2
      + 1073 pi_d_a9_a4_proc_2 + 1073 pi_d_a9_a5_proc_2 + 1073 pi_d_a9_a6_proc_2
      + 1073 pi_d_a9_a7_proc_2 + pi_y1_a9 + pi_y2_a9_proc_2 >= 0

Bounds
       pi_y1_a0 Free
       pi_y1_a1 Free
       pi_y1_a2 Free
       pi_y1_a3 Free
       pi_y1_a4 Free
       pi_y1_a5 Free
       pi_y1_a6 Free
       pi_y1_a7 Free
       pi_y1_a8 Free
       pi_y1_a9 Free
End
